Route #1: 29 76 33 178 58 60 3 10 7 66 71 57 51 113 104 96 201 61 174 172 6
Route #2: 197 4 195 23 30 22 21 19 16 171 177 161 156 180
Route #3: 176 157 154 49 28 181 42 59 55 46 40 43 36 35 9 192 54 106
Route #4: 102 65 56 72 62 73 99 135 134 31 124 138 147
Route #5: 13 11 82 14 115 114 121 166 8 117 193 24 198 186 88 2 188 189 184 132
Route #6: 125 123 110 149 91 140 122 139 151 150 130 126 136 111 90 89 92 67
Route #7: 105 183 194 200 52 25 119 108 41 81 77 53 182 191 185 118 1 173
Route #8: 44 170 160 133 64 199 74 12 48 127 148 141 187 163 37 101 100
Route #9: 155 86 5 145 129 164 167 75 144 50 112 98 18 45 68 84 79 153 131 34
Route #10: 146 20 128 158 94 70 159 83 85 47 39 190 32 179 38 69 116 143 137
Route #11: 63 87 109 97 26 27 93 107 175 95 80 103
Route #12: 142 152 165 168 196 120 169 162 78 15 17
cost: 127480
